<?xml version="1.0" encoding="utf-8"?><CPLEXSolution version="1.2"><header writeLevel="1" MIPNodes="0" solutionTypeValue="3" solutionMethodString="unknown" solutionIndex="-1" objectiveValue="1" dualFeasible="0" solutionName="incumbent" solutionTypeString="primal" MIPIterations="15" primalFeasible="0" solutionStatusString="feasible relaxed sum of infeasibilities" problemName="warehouse_infeasible.lp" solutionStatusValue="120"></header><quality maxPrimalInfeas="5" maxIntInfeas="0" epInt="1.0000000000000001e-05" maxX="1" epRHS="9.9999999999999995e-07" maxSlack="5"></quality><linearConstraints><constraint index="0" name="ctEachStoreHasOneWarehouse(0)" slack="0"/><constraint index="1" name="ctEachStoreHasOneWarehouse(1)" slack="0"/><constraint index="2" name="ctEachStoreHasOneWarehouse(2)" slack="0"/><constraint index="3" name="ctEachStoreHasOneWarehouse(3)" slack="0"/><constraint index="4" name="ctEachStoreHasOneWarehouse(4)" slack="0"/><constraint index="5" name="ctEachStoreHasOneWarehouse(5)" slack="0"/><constraint index="6" name="ctEachStoreHasOneWarehouse(6)" slack="0"/><constraint index="7" name="ctEachStoreHasOneWarehouse(7)" slack="0"/><constraint index="8" name="ctEachStoreHasOneWarehouse(8)" slack="0"/><constraint index="9" name="ctEachStoreHasOneWarehouse(9)" slack="0"/><constraint index="10" name="ctUseOpenWarehouses(&quot;Bonn&quot;)(0)" slack="1"/><constraint index="11" name="ctUseOpenWarehouses(&quot;Bonn&quot;)(1)" slack="1"/><constraint index="12" name="ctUseOpenWarehouses(&quot;Bonn&quot;)(2)" slack="1"/><constraint index="13" name="ctUseOpenWarehouses(&quot;Bonn&quot;)(3)" slack="0"/><constraint index="14" name="ctUseOpenWarehouses(&quot;Bonn&quot;)(4)" slack="1"/><constraint index="15" name="ctUseOpenWarehouses(&quot;Bonn&quot;)(5)" slack="1"/><constraint index="16" name="ctUseOpenWarehouses(&quot;Bonn&quot;)(6)" slack="1"/><constraint index="17" name="ctUseOpenWarehouses(&quot;Bonn&quot;)(7)" slack="1"/><constraint index="18" name="ctUseOpenWarehouses(&quot;Bonn&quot;)(8)" slack="1"/><constraint index="19" name="ctUseOpenWarehouses(&quot;Bonn&quot;)(9)" slack="1"/><constraint index="20" name="ctUseOpenWarehouses(&quot;Bordeaux&quot;)(0)" slack="1"/><constraint index="21" name="ctUseOpenWarehouses(&quot;Bordeaux&quot;)(1)" slack="1"/><constraint index="22" name="ctUseOpenWarehouses(&quot;Bordeaux&quot;)(2)" slack="1"/><constraint index="23" name="ctUseOpenWarehouses(&quot;Bordeaux&quot;)(3)" slack="1"/><constraint index="24" name="ctUseOpenWarehouses(&quot;Bordeaux&quot;)(4)" slack="0"/><constraint index="25" name="ctUseOpenWarehouses(&quot;Bordeaux&quot;)(5)" slack="1"/><constraint index="26" name="ctUseOpenWarehouses(&quot;Bordeaux&quot;)(6)" slack="1"/><constraint index="27" name="ctUseOpenWarehouses(&quot;Bordeaux&quot;)(7)" slack="1"/><constraint index="28" name="ctUseOpenWarehouses(&quot;Bordeaux&quot;)(8)" slack="1"/><constraint index="29" name="ctUseOpenWarehouses(&quot;Bordeaux&quot;)(9)" slack="1"/><constraint index="30" name="ctUseOpenWarehouses(&quot;London&quot;)(0)" slack="1"/><constraint index="31" name="ctUseOpenWarehouses(&quot;London&quot;)(1)" slack="1"/><constraint index="32" name="ctUseOpenWarehouses(&quot;London&quot;)(2)" slack="1"/><constraint index="33" name="ctUseOpenWarehouses(&quot;London&quot;)(3)" slack="1"/><constraint index="34" name="ctUseOpenWarehouses(&quot;London&quot;)(4)" slack="1"/><constraint index="35" name="ctUseOpenWarehouses(&quot;London&quot;)(5)" slack="1"/><constraint index="36" name="ctUseOpenWarehouses(&quot;London&quot;)(6)" slack="1"/><constraint index="37" name="ctUseOpenWarehouses(&quot;London&quot;)(7)" slack="1"/><constraint index="38" name="ctUseOpenWarehouses(&quot;London&quot;)(8)" slack="0"/><constraint index="39" name="ctUseOpenWarehouses(&quot;London&quot;)(9)" slack="1"/><constraint index="40" name="ctUseOpenWarehouses(&quot;Paris&quot;)(0)" slack="1"/><constraint index="41" name="ctUseOpenWarehouses(&quot;Paris&quot;)(1)" slack="0"/><constraint index="42" name="ctUseOpenWarehouses(&quot;Paris&quot;)(2)" slack="1"/><constraint index="43" name="ctUseOpenWarehouses(&quot;Paris&quot;)(3)" slack="1"/><constraint index="44" name="ctUseOpenWarehouses(&quot;Paris&quot;)(4)" slack="1"/><constraint index="45" name="ctUseOpenWarehouses(&quot;Paris&quot;)(5)" slack="1"/><constraint index="46" name="ctUseOpenWarehouses(&quot;Paris&quot;)(6)" slack="1"/><constraint index="47" name="ctUseOpenWarehouses(&quot;Paris&quot;)(7)" slack="1"/><constraint index="48" name="ctUseOpenWarehouses(&quot;Paris&quot;)(8)" slack="1"/><constraint index="49" name="ctUseOpenWarehouses(&quot;Paris&quot;)(9)" slack="1"/><constraint index="50" name="ctUseOpenWarehouses(&quot;Rome&quot;)(0)" slack="0"/><constraint index="51" name="ctUseOpenWarehouses(&quot;Rome&quot;)(1)" slack="1"/><constraint index="52" name="ctUseOpenWarehouses(&quot;Rome&quot;)(2)" slack="0"/><constraint index="53" name="ctUseOpenWarehouses(&quot;Rome&quot;)(3)" slack="1"/><constraint index="54" name="ctUseOpenWarehouses(&quot;Rome&quot;)(4)" slack="1"/><constraint index="55" name="ctUseOpenWarehouses(&quot;Rome&quot;)(5)" slack="0"/><constraint index="56" name="ctUseOpenWarehouses(&quot;Rome&quot;)(6)" slack="0"/><constraint index="57" name="ctUseOpenWarehouses(&quot;Rome&quot;)(7)" slack="0"/><constraint index="58" name="ctUseOpenWarehouses(&quot;Rome&quot;)(8)" slack="1"/><constraint index="59" name="ctUseOpenWarehouses(&quot;Rome&quot;)(9)" slack="0"/><constraint index="60" name="ctMaxUseOfWarehouse(&quot;Bonn&quot;)" slack="0"/><constraint index="61" name="ctMaxUseOfWarehouse(&quot;Bordeaux&quot;)" slack="0"/><constraint index="62" name="ctMaxUseOfWarehouse(&quot;London&quot;)" slack="0"/><constraint index="63" name="ctMaxUseOfWarehouse(&quot;Paris&quot;)" slack="0"/><constraint index="64" name="ctMaxUseOfWarehouse(&quot;Rome&quot;)" slack="-5"/></linearConstraints><variables><variable index="0" name="Open(&quot;Bonn&quot;)" value="1"/><variable index="1" name="Open(&quot;Bordeaux&quot;)" value="1"/><variable index="2" name="Open(&quot;London&quot;)" value="1"/><variable index="3" name="Open(&quot;Paris&quot;)" value="1"/><variable index="4" name="Open(&quot;Rome&quot;)" value="1"/><variable index="5" name="Supply(0)(&quot;Bonn&quot;)" value="-0"/><variable index="6" name="Supply(1)(&quot;Bonn&quot;)" value="0"/><variable index="7" name="Supply(2)(&quot;Bonn&quot;)" value="-0"/><variable index="8" name="Supply(3)(&quot;Bonn&quot;)" value="1"/><variable index="9" name="Supply(4)(&quot;Bonn&quot;)" value="0"/><variable index="10" name="Supply(5)(&quot;Bonn&quot;)" value="-0"/><variable index="11" name="Supply(6)(&quot;Bonn&quot;)" value="-0"/><variable index="12" name="Supply(7)(&quot;Bonn&quot;)" value="-0"/><variable index="13" name="Supply(8)(&quot;Bonn&quot;)" value="-0"/><variable index="14" name="Supply(9)(&quot;Bonn&quot;)" value="0"/><variable index="15" name="Supply(0)(&quot;Bordeaux&quot;)" value="-0"/><variable index="16" name="Supply(1)(&quot;Bordeaux&quot;)" value="-0"/><variable index="17" name="Supply(2)(&quot;Bordeaux&quot;)" value="-0"/><variable index="18" name="Supply(3)(&quot;Bordeaux&quot;)" value="-0"/><variable index="19" name="Supply(4)(&quot;Bordeaux&quot;)" value="1"/><variable index="20" name="Supply(5)(&quot;Bordeaux&quot;)" value="0"/><variable index="21" name="Supply(6)(&quot;Bordeaux&quot;)" value="-0"/><variable index="22" name="Supply(7)(&quot;Bordeaux&quot;)" value="-0"/><variable index="23" name="Supply(8)(&quot;Bordeaux&quot;)" value="-0"/><variable index="24" name="Supply(9)(&quot;Bordeaux&quot;)" value="-0"/><variable index="25" name="Supply(0)(&quot;London&quot;)" value="-0"/><variable index="26" name="Supply(1)(&quot;London&quot;)" value="-0"/><variable index="27" name="Supply(2)(&quot;London&quot;)" value="-0"/><variable index="28" name="Supply(3)(&quot;London&quot;)" value="-0"/><variable index="29" name="Supply(4)(&quot;London&quot;)" value="-0"/><variable index="30" name="Supply(5)(&quot;London&quot;)" value="-0"/><variable index="31" name="Supply(6)(&quot;London&quot;)" value="0"/><variable index="32" name="Supply(7)(&quot;London&quot;)" value="0"/><variable index="33" name="Supply(8)(&quot;London&quot;)" value="1"/><variable index="34" name="Supply(9)(&quot;London&quot;)" value="-0"/><variable index="35" name="Supply(0)(&quot;Paris&quot;)" value="0"/><variable index="36" name="Supply(1)(&quot;Paris&quot;)" value="1"/><variable index="37" name="Supply(2)(&quot;Paris&quot;)" value="-0"/><variable index="38" name="Supply(3)(&quot;Paris&quot;)" value="-0"/><variable index="39" name="Supply(4)(&quot;Paris&quot;)" value="-0"/><variable index="40" name="Supply(5)(&quot;Paris&quot;)" value="0"/><variable index="41" name="Supply(6)(&quot;Paris&quot;)" value="-0"/><variable index="42" name="Supply(7)(&quot;Paris&quot;)" value="-0"/><variable index="43" name="Supply(8)(&quot;Paris&quot;)" value="-0"/><variable index="44" name="Supply(9)(&quot;Paris&quot;)" value="-0"/><variable index="45" name="Supply(0)(&quot;Rome&quot;)" value="1"/><variable index="46" name="Supply(1)(&quot;Rome&quot;)" value="-0"/><variable index="47" name="Supply(2)(&quot;Rome&quot;)" value="1"/><variable index="48" name="Supply(3)(&quot;Rome&quot;)" value="-0"/><variable index="49" name="Supply(4)(&quot;Rome&quot;)" value="-0"/><variable index="50" name="Supply(5)(&quot;Rome&quot;)" value="1"/><variable index="51" name="Supply(6)(&quot;Rome&quot;)" value="1"/><variable index="52" name="Supply(7)(&quot;Rome&quot;)" value="1"/><variable index="53" name="Supply(8)(&quot;Rome&quot;)" value="0"/><variable index="54" name="Supply(9)(&quot;Rome&quot;)" value="1"/></variables></CPLEXSolution>